TERM = { '.', 's(2)', 's(4)', 'in_1', 'local_0', 'local_1', 'in_2', 'in_3', 's(1)', 's(0)', 's(3)', 'in_0'};
null = '.';
s = 14;
n = 10;
ndeps = 7;
max_registers_sz = 5;
NR = 2;
registers = [|'local_0', 'in_1', |'local_1', 'in_1'|];
dependencies = [|'i32.store8_1', 'i32.load_4', |'i32.store8_1', 'i32.load_5', |'i32.store8_1', 'i32.load_12', |'i32.load_4', 'i32.store16_7', |'i32.load_5', 'i32.store16_7', |'i32.store16_7', 'i32.load8_s_8', |'i32.store16_7', 'i32.load8_u_13'|];
GET_ENUM = { GET1, GET2, GET3, GET4, GET5, GET6, GET7};
SET_ENUM = { SET1, SET2, SET3, SET4, SET5, SET6, SET7};
TEE_ENUM = { TEE1, TEE2, TEE3, TEE4, TEE5, TEE6, TEE7};
N = 7;
OP = { 'i32.store8_1', 'i32.load_4', 'i32.load_5', 'i32.store16_7', 'i32.load8_s_8', 'i32.load_12', 'i32.load8_u_13' };
in_ops = [2, 1, 1, 2, 1, 1, 1 ];
out_ops = [0, 1, 1, 0, 1, 1, 1 ];
in1 = ['local_1', 'in_2', 's(0)', 'in_1', 'in_3', 'in_1', 's(3)' ];
in2 = ['in_0', '.', '.', 's(1)', '.', '.', '.' ];
in3 = ['.', '.', '.', '.', '.', '.', '.' ];
out1 = ['.', 's(0)', 's(1)', '.', 's(2)', 's(3)', 's(4)' ];
out2 = ['.', '.', '.', '.', '.', '.', '.' ];
out3 = ['.', '.', '.', '.', '.', '.', '.' ];
comm = [false, false, false, false, false, false, false ];
gas = [1, 1, 1, 1, 1, 1, 1 ];
sz = [1, 1, 1, 1, 1, 1, 1 ];
stor = [true, false, false, true, false, false, false ];
lb = [ 1, 1, 1, 1, 1, 1, 1 ];
ub = [ 14, 14, 14, 14, 14, 14, 14 ];
startstack = [ 'in_0', 'in_1', 'in_2', 'in_3', null, null, null, null, null, null ];
endstack = [ 's(4)', 's(2)', null, null, null, null, null, null, null, null ];
